ITEM = _(1..45);
knapsack_n = 3;
capacities = [241, 249, 232];
profits = [10, 477, 32, 28, 26, 63, 11, 45, 553, 18, 10, 427, 400, 129, 146, 494, 54, 47, 133, 349, 135, 400, 18, 10, 578, 25, 84, 123, 523, 136, 20, 45, 51, 520, 34, 11, 162, 13, 15, 82, 366, 57, 20, 196, 574];
weights = [12, 54, 7, 5, 5, 27, 4, 14, 66, 3, 8, 62, 47, 27, 15, 57, 19, 21, 27, 67, 22, 66, 12, 8, 44, 9, 26, 23, 60, 15, 12, 33, 28, 85, 6, 10, 23, 6, 4, 13, 46, 35, 5, 59, 76];
